(set-logic QF_BV)
(declare-fun _substvar_464_ () (_ BitVec 95))
(declare-fun _substvar_203_ () (_ BitVec 95))
(declare-fun _substvar_536_ () Bool)
(declare-fun _substvar_444_ () (_ BitVec 95))
(declare-fun _substvar_449_ () (_ BitVec 95))
(assert (and true true true true true true true true true true true true true true true true true true true true true true true true true true true true true true true true true true true true true true true true true true true true true true true true true true true true true true true true true true true true true true true true true true true true true true true true true true true true true true true true true true true true true true true true true true true true true true true true true true true true true true true true true true true true true true true true true true true true true true true true true true true true true true true true true true true true true true true true true true true true true true true true true true true true true true true true true true true true (= _substvar_449_ (_ bv0 95)) (ite _substvar_536_ (= _substvar_464_ (_ bv0 95)) (= _substvar_464_ (concat ((_ extract 93 0) _substvar_449_) (_ bv0 1)))) (= _substvar_444_ (concat ((_ extract 93 0) _substvar_464_) (bvxor ((_ extract 94 94) _substvar_464_) ((_ extract 83 83) _substvar_464_)))) (= _substvar_203_ (concat ((_ extract 93 0) _substvar_444_) (_ bv0 1))) true true true true true true true true true true true true true true true true true true true true true true true true true true true true true true true true true true true true true true true true true true true true true true true true true true true true true true true true true true true true true true true true true true true true true true true true true true true true true true true true true true true true true true true true true true true true true true true true true true true true true true true true true true true true true true true true true true true true true true true true true true true true true true true true true true true true (= (or false false false false false false false false false false false false false false false false false false false false false false false (= _substvar_203_ (_ bv0 95)) false false false false) false)))
(check-sat)
(exit)
